NAME lp_typeD_777
OBJSENSE MAX
ROWS
 N  OBJ
 L  c0      
 L  c1      
 L  c2      
 G  c3      
 G  c4      
 G  c5      
 L  c_key_upper
 G  c_key_lower
 G  _chain_constr_1
 G  _chain_constr_2
 G  _chain_constr_3
 G  _chain_constr_4
 G  _chain_constr_5
 G  _chain_cycle
COLUMNS
    x0        OBJ       8.7698751054356694e-01
    x0        c0        1.06822217718416
    x0        c1        1.5332927841958353e+00
    x0        c2        1.7254723763818032e+00
    x0        c3        1.6028658175862138e+00
    x0        c4        1.5014854189543920e+00
    x0        c5        9.8444117978075818e-01
    x0        c_key_upper  1.8273013093469221e+00
    x0        c_key_lower  1.8273013093469221e+00
    x1        OBJ       0.651096055676814
    x1        c0        1.1198433346640579e+00
    x1        c1        9.7108270765046512e-01
    x1        c2        9.8082026248406717e-01
    x1        c3        1.5183359137959263e+00
    x1        c4        1.3872368625958607e+00
    x1        c5        1.2140487252964931e+00
    x1        c_key_upper  1.9629090060017473e+00
    x1        c_key_lower  1.9629090060017473e+00
    x2        OBJ       5.3326198005480807e-01
    x2        c0        1.0828487782028289e+00
    x2        c1        7.7707981120085989e-01
    x2        c2        0.927555972820405
    x2        c3        1.0336824097847450e+00
    x2        c4        1.5131837333414113e+00
    x2        c5        1.3451240193730072e+00
    x2        c_key_upper  1.7844962456223548e+00
    x2        c_key_lower  1.7844962456223548e+00
    x3        OBJ       6.4439987282665212e-01
    x3        c0        1.3247129435802698e+00
    x3        c1        0.947778134970527
    x3        c2        1.7159573809642739e+00
    x3        c3        1.5208057393394105e+00
    x3        c4        1.0598407793934685e+00
    x3        c5        7.4832884303545866e-01
    x3        c_key_upper  1.7598319717231456e+00
    x3        c_key_lower  1.7598319717231456e+00
    x4        OBJ       6.8518503216965021e-01
    x4        c0        1.0610736280799915e+00
    x4        c1        1.6686843028028790e+00
    x4        c2        1.4892226166658427e+00
    x4        c3        1.9163397411537557e+00
    x4        c4        1.5571297470913412e+00
    x4        c5        1.9554580413323341e+00
    x4        c_key_upper  1.7452017419065633e+00
    x4        c_key_lower  1.7452017419065633e+00
    x5        OBJ       1.3412484210581075e+00
    x5        c0        9.9105856308169926e-01
    x5        c1        1.7351533221036892e+00
    x5        c2        1.0123236136986746e+00
    x5        c3        5.4360667265006468e-01
    x5        c4        1.0677554794183224e+00
    x5        c5        5.6773951368515174e-01
    x5        c_key_upper  1.1288734923651957e+00
    x5        c_key_lower  1.1288734923651957e+00
    _chain_var_0  _chain_constr_1  -1
    _chain_var_0  _chain_cycle  1
    _chain_var_1  _chain_constr_1  1
    _chain_var_1  _chain_constr_2  -1
    _chain_var_2  _chain_constr_2  1
    _chain_var_2  _chain_constr_3  -1
    _chain_var_3  _chain_constr_3  1
    _chain_var_3  _chain_constr_4  -1
    _chain_var_4  _chain_constr_4  1
    _chain_var_4  _chain_constr_5  -1
    _chain_var_5  _chain_constr_5  1
    _chain_var_5  _chain_cycle  -1
RHS
    RHS1      c0        3.5873051327888327e+01
    RHS1      c1        4.3317576470981095e+01
    RHS1      c2        3.1444698512093879e+01
    RHS1      c3        1.2688888489882041e+01
    RHS1      c4        1.0546511136806927e+01
    RHS1      c5        9.66809553685819
    RHS1      c_key_upper  5.1043068834829640e+01
    RHS1      c_key_lower  2.5521534417414820e+01
    RHS1      _chain_constr_1  10
    RHS1      _chain_constr_2  10
    RHS1      _chain_constr_3  10
    RHS1      _chain_constr_4  10
    RHS1      _chain_constr_5  10
    RHS1      _chain_cycle  10
BOUNDS
 UP BND1      x0        10
 UP BND1      x1        10
 UP BND1      x2        10
 UP BND1      x3        10
 UP BND1      x4        10
 UP BND1      x5        10
 UP BND1      _chain_var_0  100
 UP BND1      _chain_var_1  100
 UP BND1      _chain_var_2  100
 UP BND1      _chain_var_3  100
 UP BND1      _chain_var_4  100
 UP BND1      _chain_var_5  100
ENDATA
